304 5
10 10 10 10 10 

0 0 0 0 0 0 3 2 24 46 
0 0 0 0 0 0 2 3 201 
8 0 1 1 0 0 3 10 7 4 
6 0 2 3 0 0 1 5 
1 0 3 1 0 0 1 6 
6 0 1 2 0 0 1 8 
3 0 2 1 0 0 1 8 
3 0 4 2 0 0 2 13 9 
3 0 3 1 0 0 2 17 11 
8 0 2 1 0 0 2 17 12 
2 0 2 4 0 0 1 12 
3 0 3 2 0 0 1 14 
1 0 3 1 0 0 1 14 
3 0 4 3 0 0 2 22 15 
9 0 4 5 0 0 1 16 
2 0 1 3 0 0 1 18 
4 0 2 1 0 0 1 18 
9 0 2 6 0 0 1 19 
5 0 1 2 0 0 1 20 
5 0 2 4 0 0 1 21 
8 0 3 4 0 0 1 23 
4 0 5 3 0 0 1 23 
0 0 0 0 0 0 1 94 
0 0 0 0 0 0 3 25 33 39 
1 1 0 0 1 0 3 44 41 26 
3 2 0 0 2 0 1 27 
4 5 0 0 1 0 1 28 
5 3 0 0 2 0 1 29 
7 4 0 0 2 0 1 30 
8 4 0 0 3 0 1 31 
5 3 0 0 3 0 1 32 
8 1 0 0 3 0 2 43 34 
3 3 0 0 2 0 2 43 34 
2 2 0 0 4 0 1 35 
1 1 0 0 2 0 1 36 
9 2 0 0 2 0 1 37 
1 2 0 0 2 0 1 38 
3 1 0 0 3 0 1 40 
7 2 0 0 1 0 2 41 144 
5 2 0 0 3 0 1 42 
1 5 0 0 3 0 1 42 
2 3 0 0 3 0 1 45 
8 2 0 0 4 0 1 45 
5 2 0 0 4 0 1 45 
0 0 0 0 0 0 1 94 
0 0 0 0 0 0 1 47 
1 1 0 0 0 0 1 48 
6 1 0 0 0 0 2 54 49 
2 3 0 0 0 0 2 53 50 
1 4 0 0 0 0 2 55 51 
4 3 0 0 0 0 2 52 102 
6 4 0 0 0 0 1 56 
5 2 0 0 0 0 1 55 
1 3 0 0 0 0 1 55 
2 1 0 0 0 0 1 57 
10 3 0 0 0 0 1 57 
0 0 0 0 0 0 3 58 70 82 
0 0 0 0 0 0 3 59 62 63 
2 0 1 0 0 0 1 60 
6 0 1 0 0 0 1 61 
4 0 4 0 0 0 2 68 64 
6 0 2 0 0 0 3 68 65 104 
8 0 3 0 0 0 2 68 66 
3 0 4 0 0 0 1 65 
3 0 2 0 0 0 1 66 
9 0 3 0 0 0 1 67 
10 0 4 0 0 0 1 69 
10 0 1 0 0 0 1 69 
0 0 0 0 0 0 1 94 
0 0 0 0 0 0 3 71 75 76 
5 0 0 0 0 1 1 72 
7 0 0 0 0 1 1 73 
7 0 0 0 0 2 2 74 296 
8 0 0 0 0 3 2 80 77 
8 0 0 0 0 2 1 77 
1 0 0 0 0 3 2 80 79 
1 0 0 0 0 3 1 78 
4 0 0 0 0 3 1 79 
9 0 0 0 0 4 1 81 
4 0 0 0 0 3 1 81 
0 0 0 0 0 0 1 94 
0 0 0 0 0 0 1 83 
10 0 0 0 0 1 2 85 84 
7 0 0 0 0 1 2 90 86 
4 0 0 0 0 1 3 88 87 300 
7 0 0 0 0 2 1 87 
2 0 0 0 0 4 1 89 
7 0 0 0 0 3 1 89 
7 0 0 0 0 3 1 91 
2 0 0 0 0 3 1 91 
2 0 0 0 0 3 1 92 
3 0 0 0 0 4 1 93 
0 0 0 0 0 0 1 94 
0 0 0 0 0 0 5 95 107 129 151 173 
0 0 0 0 0 0 2 96 98 
10 1 0 0 0 0 1 97 
4 3 0 0 0 0 2 103 99 
2 3 0 0 0 0 2 103 99 
8 3 0 0 0 0 1 100 
1 2 0 0 0 0 1 101 
3 3 0 0 0 0 1 102 
1 2 0 0 0 0 2 105 104 
3 3 0 0 0 0 3 105 104 287 
7 1 0 0 0 0 1 106 
1 4 0 0 0 0 1 106 
0 0 0 0 0 0 5 195 207 219 231 243 
0 0 0 0 0 0 2 108 112 
9 0 0 0 1 1 3 127 126 109 
1 0 0 0 2 3 1 110 
8 0 0 0 2 1 2 116 111 
7 0 0 0 3 1 1 113 
8 0 0 0 2 2 2 116 115 
10 0 0 0 4 5 1 114 
10 0 0 0 2 2 1 115 
7 0 0 0 2 3 1 117 
9 0 0 0 4 1 1 117 
2 0 0 0 3 5 1 118 
2 0 0 0 2 4 1 119 
10 0 0 0 1 1 2 125 120 
8 0 0 0 1 2 1 121 
1 0 0 0 3 3 1 122 
10 0 0 0 8 2 1 123 
3 0 0 0 2 4 1 124 
10 0 0 0 2 3 1 128 
4 0 0 0 1 3 2 128 229 
1 0 0 0 2 2 1 128 
1 0 0 0 3 2 1 128 
0 0 0 0 0 0 1 255 
0 0 0 0 0 0 3 130 148 149 
2 1 0 0 1 0 2 141 131 
5 2 0 0 3 0 2 147 132 
5 2 0 0 3 0 1 133 
3 3 0 0 3 0 1 134 
8 4 0 0 2 0 1 135 
8 1 0 0 2 0 2 146 136 
8 6 0 0 1 0 1 137 
7 2 0 0 2 0 1 138 
9 1 0 0 3 0 1 139 
3 3 0 0 6 0 1 140 
5 1 0 0 2 0 1 142 
5 3 0 0 2 0 2 142 288 
8 3 0 0 1 0 1 143 
10 3 0 0 4 0 1 144 
3 2 0 0 3 0 1 145 
5 2 0 0 1 0 1 150 
1 2 0 0 1 0 1 150 
3 4 0 0 4 0 1 150 
2 3 0 0 3 0 1 150 
6 2 0 0 3 0 1 150 
0 0 0 0 0 0 1 255 
0 0 0 0 0 0 4 152 166 170 171 
1 1 0 0 0 1 2 163 153 
7 5 0 0 0 3 1 154 
1 2 0 0 0 1 1 155 
3 2 0 0 0 3 1 156 
9 3 0 0 0 2 1 157 
8 2 0 0 0 4 1 158 
8 5 0 0 0 2 1 159 
7 3 0 0 0 4 1 160 
4 6 0 0 0 2 2 169 161 
1 2 0 0 0 2 1 162 
5 1 0 0 0 3 1 164 
4 3 0 0 0 2 1 164 
9 2 0 0 0 3 1 165 
7 4 0 0 0 3 1 167 
6 1 0 0 0 2 1 167 
5 1 0 0 0 3 2 168 223 
4 2 0 0 0 2 1 172 
3 2 0 0 0 3 1 172 
2 2 0 0 0 2 1 172 
1 1 0 0 0 3 1 172 
0 0 0 0 0 0 1 255 
0 0 0 0 0 0 3 174 175 197 
6 0 1 0 1 0 2 177 176 
9 0 3 0 1 0 2 177 176 
10 0 3 0 4 0 2 180 179 
4 0 4 0 3 0 1 178 
8 0 2 0 3 0 1 179 
5 0 3 0 2 0 1 181 
5 0 1 0 1 0 1 181 
10 0 3 0 2 0 1 182 
6 0 3 0 2 0 2 184 183 
2 0 2 0 2 0 1 185 
2 0 3 0 3 0 1 185 
3 0 4 0 2 0 1 186 
7 0 3 0 3 0 1 187 
9 0 1 0 3 0 1 188 
8 0 1 0 3 0 2 192 189 
9 0 3 0 6 0 1 190 
7 0 4 0 5 0 1 191 
6 0 1 0 1 0 1 193 
5 0 1 0 2 0 1 193 
3 0 4 0 1 0 1 194 
0 0 0 0 0 0 1 255 
0 0 0 0 0 0 1 196 
4 0 0 1 0 0 2 198 197 
8 0 0 3 0 0 2 202 200 
1 0 0 4 0 0 1 199 
6 0 0 1 0 0 2 201 253 
2 0 0 3 0 0 1 201 
1 0 0 3 0 0 1 203 
9 0 0 3 0 0 1 203 
4 0 0 4 0 0 1 204 
10 0 0 2 0 0 1 205 
2 0 0 1 0 0 1 206 
0 0 0 0 0 0 1 255 
0 0 0 0 0 0 1 208 
3 0 0 0 0 1 2 214 209 
3 0 0 0 0 2 1 210 
5 0 0 0 0 2 2 212 211 
7 0 0 0 0 6 2 217 213 
6 0 0 0 0 2 3 217 215 265 
5 0 0 0 0 2 1 215 
5 0 0 0 0 3 1 215 
7 0 0 0 0 1 1 216 
3 0 0 0 0 2 1 218 
4 0 0 0 0 4 1 218 
0 0 0 0 0 0 1 255 
0 0 0 0 0 0 1 220 
5 0 0 0 0 1 1 221 
2 0 0 0 0 3 1 222 
1 0 0 0 0 3 4 226 225 223 269 
9 0 0 0 0 1 1 224 
10 0 0 0 0 3 2 229 227 
8 0 0 0 0 2 2 229 227 
10 0 0 0 0 4 1 227 
3 0 0 0 0 2 1 228 
10 0 0 0 0 4 1 230 
3 0 0 0 0 2 1 230 
0 0 0 0 0 0 1 255 
0 0 0 0 0 0 2 232 233 
8 0 0 0 1 0 1 234 
2 0 0 0 3 0 2 237 236 
5 0 0 0 1 0 1 235 
1 0 0 0 3 0 2 241 237 
4 0 0 0 3 0 2 241 238 
5 0 0 0 5 0 1 238 
3 0 0 0 3 0 1 239 
7 0 0 0 1 0 1 240 
6 0 0 0 1 0 1 242 
7 0 0 0 4 0 1 242 
0 0 0 0 0 0 1 255 
0 0 0 0 0 0 2 244 246 
5 1 0 0 0 0 2 249 245 
7 4 0 0 0 0 1 247 
1 3 0 0 0 0 2 253 249 
2 3 0 0 0 0 1 248 
8 2 0 0 0 0 2 253 250 
6 3 0 0 0 0 1 250 
7 2 0 0 0 0 1 251 
8 3 0 0 0 0 1 252 
3 2 0 0 0 0 1 254 
8 2 0 0 0 0 1 254 
0 0 0 0 0 0 1 255 
0 0 0 0 0 0 4 256 268 280 292 
0 0 0 0 0 0 2 257 258 
10 0 0 0 0 1 2 261 259 
1 0 0 0 0 2 2 262 261 
3 0 0 0 0 6 1 260 
5 0 0 0 0 1 2 266 262 
6 0 0 0 0 2 2 266 263 
8 0 0 0 0 4 1 263 
9 0 0 0 0 1 1 264 
10 0 0 0 0 2 1 265 
4 0 0 0 0 4 1 267 
9 0 0 0 0 2 1 267 
0 0 0 0 0 0 1 304 
0 0 0 0 0 0 2 269 278 
8 0 0 0 0 1 1 270 
2 0 0 0 0 4 3 277 276 271 
6 0 0 0 0 2 1 272 
2 0 0 0 0 5 1 273 
6 0 0 0 0 1 1 274 
2 0 0 0 0 3 1 275 
10 0 0 0 0 2 1 279 
7 0 0 0 0 3 1 279 
5 0 0 0 0 2 1 279 
8 0 0 0 0 2 1 279 
0 0 0 0 0 0 1 304 
0 0 0 0 0 0 2 281 286 
4 0 0 0 0 1 2 290 282 
5 0 0 0 0 2 1 283 
10 0 0 0 0 1 1 284 
5 0 0 0 0 5 2 289 285 
5 0 0 0 0 3 1 287 
7 0 0 0 0 3 1 287 
3 0 0 0 0 3 1 288 
3 0 0 0 0 4 1 291 
10 0 0 0 0 1 1 291 
9 0 0 0 0 2 1 291 
0 0 0 0 0 0 1 304 
0 0 0 0 0 0 3 293 301 302 
4 0 0 0 0 1 1 294 
8 0 0 0 0 2 2 300 295 
7 0 0 0 0 4 1 296 
5 0 0 0 0 1 1 297 
1 0 0 0 0 3 1 298 
10 0 0 0 0 2 1 299 
9 0 0 0 0 4 1 303 
6 0 0 0 0 1 1 303 
5 0 0 0 0 2 1 303 
9 0 0 0 0 5 1 303 
0 0 0 0 0 0 1 304 
0 0 0 0 0 0 0 
